(set-logic QF_FP)
(set-option :produce-models true)
(set-info :source |Random FP created by PyMPF|)
(set-info :category random)
(set-info :status sat)
(declare-const x Float32)
(assert (= x (fp #b0 #b11111111 #b11000011010110100110111)))
(declare-const y Float32)
(assert (= y (fp #b0 #b11111100 #b11011010101011010001100)))
(declare-const z Float32)
(assert (= z ((_ to_fp 8 24) #x7F7FFFFF)))
(declare-const result Float32)
(assert (= result (fp.fma RTP x y z)))
(assert (= result (fp #b1 #b11111111 #b11111111111111111111111)))
(check-sat)
(exit)
